Maximize
 obj: 0 X1
Subject To
 c1:
  + 1 X133 + 1 X166 + 1 X47 + 1 X170 + 1 X83 + 1 X34 + 1 X104 + 1 X58
  + 1 X119 + 1 X118 + 1 X64 + 1 X127 + 1 X9 + 1 X171 + 1 X57 + 1 X89
  + 1 X87 + 1 X5 + 1 X126 + 1 X128
  <= 1
 c2:
  + 1 X113 + 1 X83 + 1 X118 + 1 X67 + 1 X37 + 1 X42 + 1 X81 + 1 X61
  <= 1
 c3:
  + 1 X20 + 1 X9 + 1 X8 + 1 X162 + 1 X117 + 1 X35 + 1 X72 + 1 X135
  + 1 X3 + 1 X15 + 1 X77
  <= 1
 c4:
  + 1 X94 + 1 X83 + 1 X164 + 1 X109 + 1 X54 + 1 X52 + 1 X65 + 1 X102
  + 1 X60 + 1 X64
  <= 1
 c5:
  + 1 X97 + 1 X35 + 1 X73 + 1 X70 + 1 X114 + 1 X69 + 1 X53 + 1 X132
  + 1 X41 + 1 X116 + 1 X48 + 1 X94 + 1 X111 + 1 X6 + 1 X164 + 1 X20
  + 1 X96 + 1 X162 + 1 X43
  <= 1
 c6:
  + 1 X53 + 1 X91 + 1 X114 + 1 X141 + 1 X102 + 1 X98 + 1 X42 + 1 X142
  + 1 X90 + 1 X121
  <= 1
 c7:
  + 1 X168 + 1 X51 + 1 X85 + 1 X116 + 1 X147 + 1 X151 + 1 X57 + 1 X53
  + 1 X91 + 1 X167 + 1 X144 + 1 X38 + 1 X46 + 1 X33 + 1 X1 + 1 X34
  + 1 X115 + 1 X7
  <= 1
 c8:
  + 1 X3 + 1 X124 + 1 X144 + 1 X96 + 1 X23 + 1 X93 + 1 X108 + 1 X131
  + 1 X5 + 1 X162 + 1 X39 + 1 X4 + 1 X70 + 1 X117 + 1 X148 + 1 X134
  <= 1
 c9:
  + 1 X11 + 1 X109 + 1 X138 + 1 X164 + 1 X101 + 1 X167 + 1 X38 + 1 X133
  + 1 X163 + 1 X98 + 1 X55 + 1 X53 + 1 X78 + 1 X69 + 1 X103 + 1 X81
  + 1 X6
  <= 1
 c10:
  + 1 X171 + 1 X101 + 1 X90 + 1 X155
  <= 1
 c11:
  + 1 X132 + 1 X26 + 1 X70 + 1 X46 + 1 X122 + 1 X24 + 1 X160 + 1 X111
  + 1 X155 + 1 X80 + 1 X148 + 1 X61 + 1 X158 + 1 X49 + 1 X16 + 1 X81
  + 1 X42 + 1 X50 + 1 X97 + 1 X150
  <= 1
 c12:
  + 1 X8 + 1 X79 + 1 X50 + 1 X31 + 1 X106 + 1 X138 + 1 X134 + 1 X133
  + 1 X11 + 1 X84 + 1 X75 + 1 X113
  <= 1
 c13:
  + 1 X120 + 1 X105 + 1 X88 + 1 X60 + 1 X26 + 1 X53 + 1 X48 + 1 X64
  + 1 X36 + 1 X171 + 1 X86 + 1 X100
  <= 1
 c14:
  + 1 X81 + 1 X142 + 1 X170 + 1 X49 + 1 X163 + 1 X50 + 1 X105 + 1 X148
  + 1 X162 + 1 X10 + 1 X117 + 1 X56 + 1 X65 + 1 X9 + 1 X95 + 1 X26
  + 1 X102
  <= 1
 c15:
  + 1 X86 + 1 X156 + 1 X159 + 1 X136 + 1 X54 + 1 X5
  <= 1
 c16:
  + 1 X139 + 1 X147 + 1 X7 + 1 X85 + 1 X43 + 1 X42 + 1 X5 + 1 X131
  + 1 X15 + 1 X116 + 1 X103 + 1 X75 + 1 X38 + 1 X93 + 1 X35 + 1 X108
  + 1 X6 + 1 X28 + 1 X82
  <= 1
 c17:
  + 1 X129 + 1 X103 + 1 X78 + 1 X136 + 1 X20 + 1 X97 + 1 X116 + 1 X57
  + 1 X158 + 1 X175 + 1 X28 + 1 X168 + 1 X74 + 1 X46
  <= 1
 c18:
  + 1 X154 + 1 X143 + 1 X40 + 1 X81 + 1 X6 + 1 X100 + 1 X169 + 1 X134
  + 1 X132 + 1 X97 + 1 X92 + 1 X62 + 1 X84 + 1 X57 + 1 X55 + 1 X163
  + 1 X1 + 1 X148
  <= 1
 c19:
  + 1 X128 + 1 X85 + 1 X165 + 1 X56 + 1 X143 + 1 X159 + 1 X1 + 1 X37
  + 1 X69 + 1 X52 + 1 X42 + 1 X127 + 1 X44
  <= 1
 c20:
  + 1 X109 + 1 X116 + 1 X78 + 1 X62 + 1 X175 + 1 X166 + 1 X120 + 1 X2
  + 1 X140 + 1 X72 + 1 X130 + 1 X125 + 1 X57
  <= 1
 c21:
  + 1 X174 + 1 X172 + 1 X160 + 1 X95 + 1 X39 + 1 X116 + 1 X132 + 1 X103
  + 1 X45 + 1 X27
  <= 1
 c22:
  + 1 X59 + 1 X141 + 1 X26 + 1 X67 + 1 X60 + 1 X43 + 1 X34 + 1 X2
  + 1 X110 + 1 X131 + 1 X109 + 1 X14 + 1 X22 + 1 X52 + 1 X33
  <= 1
 c23:
  + 1 X7 + 1 X17 + 1 X52 + 1 X36 + 1 X143 + 1 X93 + 1 X107 + 1 X25
  + 1 X150 + 1 X43 + 1 X31 + 1 X96 + 1 X92 + 1 X71 + 1 X62 + 1 X154
  + 1 X6 + 1 X127 + 1 X91
  <= 1
 c24:
  + 1 X164 + 1 X29 + 1 X138 + 1 X2 + 1 X20 + 1 X64
  <= 1
 c25:
  + 1 X27 + 1 X156 + 1 X175 + 1 X91 + 1 X87 + 1 X13
  <= 1
 c26:
  + 1 X115 + 1 X119 + 1 X11 + 1 X60 + 1 X18 + 1 X23 + 1 X75 + 1 X32
  + 1 X87 + 1 X95 + 1 X21 + 1 X19 + 1 X35
  <= 1
 c27:
  + 1 X111 + 1 X7 + 1 X12 + 1 X32 + 1 X8 + 1 X26 + 1 X155 + 1 X66
  + 1 X140 + 1 X166 + 1 X16 + 1 X6 + 1 X50
  <= 1
 c28:
  + 1 X135 + 1 X144 + 1 X157 + 1 X122 + 1 X55 + 1 X14 + 1 X39 + 1 X24
  + 1 X169 + 1 X129 + 1 X3 + 1 X96 + 1 X137 + 1 X58 + 1 X125
  <= 1
 c29:
  + 1 X145 + 1 X34 + 1 X158 + 1 X96 + 1 X82 + 1 X75 + 1 X67 + 1 X156
  + 1 X116 + 1 X151 + 1 X59 + 1 X13 + 1 X84 + 1 X132 + 1 X124 + 1 X111
  + 1 X64
  <= 1
 c30:
  + 1 X105 + 1 X91 + 1 X150 + 1 X54 + 1 X168
  <= 1
 c31:
  + 1 X151 + 1 X98 + 1 X118 + 1 X160 + 1 X7 + 1 X22 + 1 X86 + 1 X53
  + 1 X45 + 1 X122 + 1 X161 + 1 X158 + 1 X96 + 1 X93
  <= 1
 c32:
  + 1 X13 + 1 X155 + 1 X92 + 1 X53 + 1 X141 + 1 X169 + 1 X123 + 1 X51
  + 1 X14 + 1 X76 + 1 X174 + 1 X65 + 1 X61 + 1 X60
  <= 1
 c33:
  + 1 X16 + 1 X127 + 1 X169 + 1 X11 + 1 X132 + 1 X47 + 1 X87 + 1 X94
  + 1 X170 + 1 X30 + 1 X110 + 1 X104 + 1 X174 + 1 X56
  <= 1
 c34:
  + 1 X68 + 1 X21 + 1 X92 + 1 X24 + 1 X136 + 1 X82 + 1 X16 + 1 X137
  + 1 X156 + 1 X5 + 1 X96 + 1 X33 + 1 X3 + 1 X162 + 1 X154 + 1 X146
  + 1 X104 + 1 X110
  <= 1
 c35:
  + 1 X139 + 1 X20 + 1 X63 + 1 X8 + 1 X77
  <= 1
 obj1:
  + 79 X1 + 31 X2 + 63 X3 + 23 X4 + 93 X5 + 54 X6 + 37 X7 + 87 X8
  + 18 X9 + 6 X10 + 16 X11 + 100 X12 + 76 X13 + 30 X14 + 65 X15 + 76 X16
  + 72 X17 + 15 X18 + 89 X19 + 48 X20 + 98 X21 + 77 X22 + 32 X23 + 18 X24
  + 87 X25 + 71 X26 + 4 X27 + 41 X28 + 45 X29 + 14 X30 + 81 X31 + 5 X32
  + 73 X33 + 98 X34 + 41 X35 + 68 X36 + 8 X37 + 46 X38 + 2 X39 + 29 X40
  + 54 X41 + 42 X42 + 62 X43 + 84 X44 + 55 X45 + 84 X46 + 16 X47 + 62 X48
  + 46 X49 + 79 X50 + 26 X51 + 54 X52 + 21 X53 + 32 X54 + 12 X55 + 40 X56
  + 52 X57 + 35 X58 + 64 X59 + 66 X60 + 82 X61 + 3 X62 + 8 X63 + 50 X64
  + 36 X65 + 12 X66 + 15 X67 + 73 X68 + 3 X69 + 12 X70 + 91 X71 + 76 X72
  + 38 X73 + 50 X74 + 5 X75 + 67 X76 + 100 X77 + 14 X78 + 63 X79 + 32 X80
  + 51 X81 + 32 X82 + 11 X83 + 37 X84 + 79 X85 + 9 X86 + 55 X87 + 52 X88
  + 65 X89 + 52 X90 + 100 X91 + 45 X92 + 31 X93 + 73 X94 + 93 X95 + 32 X96
  + 99 X97 + 72 X98 + 66 X99 + 5 X100 + 83 X101 + 28 X102 + 54 X103 + 3 X104
  + 38 X105 + 69 X106 + 65 X107 + 85 X108 + 93 X109 + 63 X110 + 55 X111 + 47 X112
  + 23 X113 + 69 X114 + 82 X115 + 29 X116 + 71 X117 + 69 X118 + 97 X119 + 89 X120
  + 19 X121 + 8 X122 + 18 X123 + 71 X124 + 87 X125 + 51 X126 + 28 X127 + 32 X128
  + 54 X129 + 44 X130 + 59 X131 + 6 X132 + 4 X133 + 85 X134 + 80 X135 + 89 X136
  + 67 X137 + 55 X138 + 31 X139 + 25 X140 + 30 X141 + 64 X142 + 13 X143 + 61 X144
  + 62 X145 + 92 X146 + 87 X147 + 51 X148 + 51 X149 + 16 X150 + 31 X151 + 30 X152
  + 16 X153 + 68 X154 + 84 X155 + 82 X156 + 82 X157 + 9 X158 + 18 X159 + 72 X160
  + 79 X161 + 52 X162 + 17 X163 + 74 X164 + 87 X165 + 86 X166 + 100 X167 + 6 X168
  + 90 X169 + 47 X170 + 76 X171 + 4 X172 + 62 X173 + 45 X174 + 72 X175
  >= 1
 obj2:
  + 96 X1 + 94 X2 + 99 X3 + 25 X4 + 17 X5 + 88 X6 + 67 X7 + 31 X8
  + 28 X9 + 64 X10 + 79 X11 + 43 X12 + 94 X13 + 59 X14 + 32 X15 + 73 X16
  + 3 X17 + 74 X18 + 93 X19 + 76 X20 + 68 X21 + 59 X22 + 92 X23 + 16 X24
  + 81 X25 + 28 X26 + 2 X27 + 56 X28 + 37 X29 + 74 X30 + 9 X31 + 12 X32
  + 89 X33 + 91 X34 + 32 X35 + 19 X36 + 51 X37 + 37 X38 + 12 X39 + 65 X40
  + 5 X41 + 45 X42 + 11 X43 + 9 X44 + 72 X45 + 92 X46 + 97 X47 + 66 X48
  + 44 X49 + 77 X50 + 32 X51 + 46 X52 + 9 X53 + 60 X54 + 69 X55 + 52 X56
  + 51 X57 + 60 X58 + 70 X59 + 65 X60 + 43 X61 + 91 X62 + 6 X63 + 67 X64
  + 14 X65 + 78 X66 + 16 X67 + 24 X68 + 25 X69 + 67 X70 + 5 X71 + 37 X72
  + 4 X73 + 68 X74 + 38 X75 + 27 X76 + 7 X77 + 18 X78 + 79 X79 + 6 X80
  + 67 X81 + 59 X82 + 92 X83 + 55 X84 + 13 X85 + 87 X86 + 80 X87 + 29 X88
  + 40 X89 + 60 X90 + 1 X91 + 86 X92 + 31 X93 + 26 X94 + 37 X95 + 79 X96
  + 11 X97 + 43 X98 + 33 X99 + 67 X100 + 97 X101 + 4 X102 + 31 X103 + 89 X104
  + 82 X105 + 30 X106 + 13 X107 + 35 X108 + 13 X109 + 75 X110 + 97 X111 + 46 X112
  + 24 X113 + 85 X114 + 15 X115 + 77 X116 + 3 X117 + 35 X118 + 37 X119 + 10 X120
  + 87 X121 + 100 X122 + 20 X123 + 19 X124 + 29 X125 + 27 X126 + 90 X127 + 54 X128
  + 97 X129 + 71 X130 + 81 X131 + 36 X132 + 3 X133 + 35 X134 + 32 X135 + 7 X136
  + 48 X137 + 65 X138 + 39 X139 + 17 X140 + 76 X141 + 1 X142 + 58 X143 + 66 X144
  + 9 X145 + 22 X146 + 77 X147 + 44 X148 + 31 X149 + 16 X150 + 97 X151 + 6 X152
  + 5 X153 + 45 X154 + 19 X155 + 68 X156 + 13 X157 + 43 X158 + 78 X159 + 71 X160
  + 81 X161 + 19 X162 + 91 X163 + 42 X164 + 93 X165 + 20 X166 + 5 X167 + 47 X168
  + 26 X169 + 4 X170 + 66 X171 + 6 X172 + 48 X173 + 20 X174 + 86 X175
  >= 2
 obj3:
  + 71 X1 + 55 X2 + 96 X3 + 28 X4 + 57 X5 + 22 X6 + 27 X7 + 29 X8
  + 8 X9 + 98 X10 + 98 X11 + 13 X12 + 72 X13 + 15 X14 + 89 X15 + 93 X16
  + 27 X17 + 23 X18 + 35 X19 + 1 X20 + 49 X21 + 39 X22 + 19 X23 + 17 X24
  + 25 X25 + 7 X26 + 65 X27 + 83 X28 + 71 X29 + 25 X30 + 89 X31 + 33 X32
  + 44 X33 + 76 X34 + 64 X35 + 22 X36 + 15 X37 + 30 X38 + 41 X39 + 32 X40
  + 81 X41 + 91 X42 + 20 X43 + 95 X44 + 16 X45 + 96 X46 + 96 X47 + 90 X48
  + 73 X49 + 34 X50 + 81 X51 + 97 X52 + 1 X53 + 60 X54 + 6 X55 + 4 X56
  + 99 X57 + 94 X58 + 87 X59 + 7 X60 + 66 X61 + 49 X62 + 27 X63 + 27 X64
  + 46 X65 + 56 X66 + 97 X67 + 99 X68 + 43 X69 + 23 X70 + 68 X71 + 4 X72
  + 5 X73 + 47 X74 + 82 X75 + 99 X76 + 46 X77 + 32 X78 + 7 X79 + 54 X80
  + 12 X81 + 19 X82 + 24 X83 + 95 X84 + 82 X85 + 74 X86 + 8 X87 + 100 X88
  + 56 X89 + 72 X90 + 67 X91 + 32 X92 + 97 X93 + 12 X94 + 5 X95 + 21 X96
  + 15 X97 + 10 X98 + 68 X99 + 53 X100 + 96 X101 + 68 X102 + 6 X103 + 46 X104
  + 36 X105 + 10 X106 + 7 X107 + 61 X108 + 42 X109 + 55 X110 + 46 X111 + 74 X112
  + 28 X113 + 41 X114 + 26 X115 + 80 X116 + 58 X117 + 53 X118 + 51 X119 + 55 X120
  + 85 X121 + 64 X122 + 64 X123 + 15 X124 + 92 X125 + 82 X126 + 95 X127 + 89 X128
  + 39 X129 + 61 X130 + 44 X131 + 63 X132 + 80 X133 + 1 X134 + 81 X135 + 14 X136
  + 47 X137 + 79 X138 + 8 X139 + 56 X140 + 13 X141 + 52 X142 + 8 X143 + 60 X144
  + 50 X145 + 52 X146 + 65 X147 + 51 X148 + 85 X149 + 76 X150 + 18 X151 + 90 X152
  + 63 X153 + 81 X154 + 23 X155 + 75 X156 + 66 X157 + 87 X158 + 66 X159 + 40 X160
  + 64 X161 + 98 X162 + 2 X163 + 93 X164 + 82 X165 + 51 X166 + 39 X167 + 17 X168
  + 93 X169 + 9 X170 + 89 X171 + 20 X172 + 4 X173 + 43 X174 + 14 X175
  >= 3
 obj4:
  + 1 X1 + 53 X2 + 7 X3 + 56 X4 + 95 X5 + 76 X6 + 3 X7 + 4 X8
  + 16 X9 + 15 X10 + 50 X11 + 66 X12 + 91 X13 + 64 X14 + 14 X15 + 16 X16
  + 49 X17 + 83 X18 + 68 X19 + 80 X20 + 95 X21 + 80 X22 + 37 X23 + 71 X24
  + 19 X25 + 31 X26 + 47 X27 + 18 X28 + 96 X29 + 8 X30 + 91 X31 + 32 X32
  + 46 X33 + 74 X34 + 40 X35 + 46 X36 + 10 X37 + 31 X38 + 57 X39 + 94 X40
  + 69 X41 + 91 X42 + 39 X43 + 54 X44 + 20 X45 + 35 X46 + 92 X47 + 3 X48
  + 9 X49 + 35 X50 + 33 X51 + 80 X52 + 28 X53 + 1 X54 + 34 X55 + 90 X56
  + 74 X57 + 51 X58 + 11 X59 + 13 X60 + 25 X61 + 7 X62 + 14 X63 + 79 X64
  + 20 X65 + 70 X66 + 73 X67 + 54 X68 + 74 X69 + 93 X70 + 94 X71 + 22 X72
  + 57 X73 + 99 X74 + 97 X75 + 69 X76 + 86 X77 + 61 X78 + 58 X79 + 14 X80
  + 68 X81 + 96 X82 + 62 X83 + 73 X84 + 89 X85 + 94 X86 + 79 X87 + 47 X88
  + 79 X89 + 86 X90 + 63 X91 + 64 X92 + 57 X93 + 16 X94 + 93 X95 + 57 X96
  + 17 X97 + 56 X98 + 96 X99 + 14 X100 + 48 X101 + 8 X102 + 45 X103 + 58 X104
  + 74 X105 + 26 X106 + 3 X107 + 97 X108 + 43 X109 + 84 X110 + 4 X111 + 31 X112
  + 51 X113 + 41 X114 + 24 X115 + 8 X116 + 12 X117 + 14 X118 + 23 X119 + 61 X120
  + 8 X121 + 54 X122 + 39 X123 + 23 X124 + 46 X125 + 59 X126 + 60 X127 + 57 X128
  + 57 X129 + 33 X130 + 59 X131 + 86 X132 + 40 X133 + 19 X134 + 71 X135 + 82 X136
  + 32 X137 + 70 X138 + 85 X139 + 11 X140 + 95 X141 + 30 X142 + 35 X143 + 56 X144
  + 3 X145 + 64 X146 + 45 X147 + 98 X148 + 12 X149 + 100 X150 + 67 X151 + 62 X152
  + 18 X153 + 83 X154 + 50 X155 + 45 X156 + 73 X157 + 45 X158 + 93 X159 + 56 X160
  + 23 X161 + 95 X162 + 36 X163 + 52 X164 + 20 X165 + 16 X166 + 58 X167 + 53 X168
  + 28 X169 + 99 X170 + 70 X171 + 69 X172 + 30 X173 + 67 X174 + 62 X175
  >= 4
Binary
 X1
 X2
 X3
 X4
 X5
 X6
 X7
 X8
 X9
 X10
 X11
 X12
 X13
 X14
 X15
 X16
 X17
 X18
 X19
 X20
 X21
 X22
 X23
 X24
 X25
 X26
 X27
 X28
 X29
 X30
 X31
 X32
 X33
 X34
 X35
 X36
 X37
 X38
 X39
 X40
 X41
 X42
 X43
 X44
 X45
 X46
 X47
 X48
 X49
 X50
 X51
 X52
 X53
 X54
 X55
 X56
 X57
 X58
 X59
 X60
 X61
 X62
 X63
 X64
 X65
 X66
 X67
 X68
 X69
 X70
 X71
 X72
 X73
 X74
 X75
 X76
 X77
 X78
 X79
 X80
 X81
 X82
 X83
 X84
 X85
 X86
 X87
 X88
 X89
 X90
 X91
 X92
 X93
 X94
 X95
 X96
 X97
 X98
 X99
 X100
 X101
 X102
 X103
 X104
 X105
 X106
 X107
 X108
 X109
 X110
 X111
 X112
 X113
 X114
 X115
 X116
 X117
 X118
 X119
 X120
 X121
 X122
 X123
 X124
 X125
 X126
 X127
 X128
 X129
 X130
 X131
 X132
 X133
 X134
 X135
 X136
 X137
 X138
 X139
 X140
 X141
 X142
 X143
 X144
 X145
 X146
 X147
 X148
 X149
 X150
 X151
 X152
 X153
 X154
 X155
 X156
 X157
 X158
 X159
 X160
 X161
 X162
 X163
 X164
 X165
 X166
 X167
 X168
 X169
 X170
 X171
 X172
 X173
 X174
 X175
End
